
  22    4
  10   10   10   10

   0   0   0   0   0   4 2 3 4 5 
   7  10  10  10  10   3 16 9 6 
   6  10  10  10  10   5 21 16 14 13 10 
  10  10  10  10  10   5 21 14 13 11 10 
   3  10  10  10  10   4 21 20 13 8 
   3  10  10  10  10   3 21 11 7 
   1  10  10  10  10   3 20 13 10 
   1  10  10  10  10   4 19 16 15 11 
   5  10  10  10  10   3 20 19 11 
   1  10  10  10  10   3 19 15 12 
  10  10  10  10  10   1 12 
   8  10  10  10  10   2 18 17 
  10  10  10  10  10   2 18 17 
   1  10  10  10  10   2 20 17 
   2  10  10  10  10   1 18 
   5  10  10  10  10   1 17 
   9  10  10  10  10   1 22
   4  10  10  10  10   1 22
   7  10  10  10  10   1 22
   1  10  10  10  10   1 22
   6  10  10  10  10   1 22
   0   0   0   0   0   0 
